 Code  2431
 Dimension, Fixed Cost
   100        3000
 Facility, Client, Transportation Cost
     1        3           0
     1       10           1
     1       35           3
     1       36           1
     1       37           2
     1       52           2
     1       57           1
     1       72           2
     1       86           3
     1       91           3
     2        3           1
     2        7           3
     2       35           1
     2       42           1
     2       55           2
     2       69           0
     2       72           3
     2       77           2
     2       79           4
     2       83           3
     3        5           2
     3        7           0
     3       10           0
     3       41           0
     3       65           3
     3       66           4
     3       70           3
     3       72           2
     3       75           4
     3       86           2
     4       27           1
     4       33           1
     4       35           2
     4       39           0
     4       43           3
     4       44           1
     4       46           4
     4       68           1
     4       80           2
     4       91           0
     5       12           1
     5       24           1
     5       58           1
     5       62           1
     5       75           4
     5       78           1
     5       80           3
     5       82           3
     5       87           4
     5       93           4
     6        1           1
     6       21           4
     6       39           2
     6       41           2
     6       50           0
     6       74           1
     6       79           2
     6       80           4
     6       87           1
     6       90           0
     7       20           4
     7       26           1
     7       27           3
     7       29           0
     7       40           1
     7       45           4
     7       46           2
     7       52           2
     7       82           4
     7       91           0
     8       18           2
     8       21           3
     8       32           3
     8       47           4
     8       65           0
     8       70           1
     8       90           2
     8       93           4
     8       97           0
     8       99           3
     9        2           2
     9        3           4
     9       11           0
     9       14           2
     9       28           3
     9       38           4
     9       66           2
     9       89           0
     9       97           0
     9      100           2
    10       15           0
    10       28           4
    10       43           0
    10       46           1
    10       47           0
    10       58           1
    10       61           0
    10       74           4
    10       90           0
    10       98           3
    11        4           2
    11        6           2
    11       21           4
    11       23           1
    11       46           4
    11       53           4
    11       70           2
    11       73           1
    11       94           4
    11       95           2
    12       15           3
    12       24           3
    12       50           0
    12       58           4
    12       59           4
    12       62           2
    12       75           2
    12       80           1
    12       86           3
    12       95           3
    13        1           1
    13        4           1
    13       28           2
    13       30           1
    13       49           3
    13       50           0
    13       56           1
    13       67           1
    13       74           3
    13       86           3
    14       15           0
    14       17           4
    14       22           3
    14       31           0
    14       62           0
    14       71           1
    14       76           4
    14       77           3
    14       86           0
    14       90           2
    15        7           4
    15        9           4
    15       17           1
    15       40           3
    15       47           4
    15       48           0
    15       63           1
    15       66           0
    15       67           2
    15      100           3
    16        1           3
    16        7           4
    16       18           2
    16       19           0
    16       27           4
    16       40           0
    16       55           4
    16       64           4
    16       68           1
    16       88           1
    17        7           1
    17       16           0
    17       21           3
    17       28           1
    17       30           3
    17       42           1
    17       56           2
    17       88           2
    17       96           0
    17       99           0
    18        7           3
    18       18           2
    18       22           0
    18       45           1
    18       52           1
    18       68           1
    18       75           1
    18       92           3
    18       93           4
    18       94           1
    19        1           1
    19       15           1
    19       17           4
    19       21           4
    19       42           3
    19       51           4
    19       62           4
    19       80           1
    19       82           2
    19       94           0
    20        2           3
    20       20           3
    20       22           4
    20       27           3
    20       63           0
    20       86           3
    20       88           0
    20       90           3
    20       93           3
    20       98           3
    21       12           1
    21       48           4
    21       53           2
    21       75           4
    21       79           3
    21       89           2
    21       90           2
    21       91           1
    21       97           4
    21      100           1
    22        4           1
    22        7           0
    22       11           4
    22       27           3
    22       31           4
    22       51           3
    22       68           4
    22       80           2
    22       92           1
    22       96           0
    23        1           0
    23        3           0
    23       25           3
    23       37           3
    23       52           4
    23       58           1
    23       75           4
    23       76           1
    23       87           3
    23      100           1
    24        1           4
    24        6           0
    24        7           3
    24       11           4
    24       33           1
    24       44           4
    24       47           2
    24       69           0
    24       84           0
    24       85           4
    25        1           3
    25        4           1
    25       14           2
    25       31           0
    25       42           3
    25       52           2
    25       71           3
    25       80           2
    25       85           3
    25       93           0
    26        4           1
    26       22           4
    26       26           1
    26       32           4
    26       48           4
    26       70           0
    26       76           3
    26       90           4
    26       92           1
    26       95           4
    27       11           2
    27       26           2
    27       38           1
    27       42           1
    27       50           1
    27       53           0
    27       61           4
    27       62           4
    27       72           4
    27       74           4
    28       14           4
    28       17           1
    28       23           1
    28       24           4
    28       43           2
    28       46           2
    28       51           0
    28       64           3
    28       75           3
    28       76           1
    29        9           2
    29       30           0
    29       45           4
    29       49           1
    29       50           4
    29       65           1
    29       67           1
    29       73           4
    29       83           2
    29       91           2
    30        3           3
    30       16           2
    30       19           0
    30       26           1
    30       27           1
    30       38           1
    30       59           3
    30       64           2
    30       81           3
    30      100           0
    31        7           2
    31       23           4
    31       30           3
    31       50           2
    31       51           2
    31       63           3
    31       68           2
    31       85           4
    31       88           4
    31       98           3
    32        8           1
    32       67           0
    32       68           2
    32       76           1
    32       83           4
    32       85           4
    32       86           2
    32       87           1
    32       95           0
    32       96           2
    33        3           3
    33        4           0
    33       15           1
    33       25           4
    33       27           4
    33       33           1
    33       36           2
    33       41           4
    33       50           2
    33      100           4
    34        8           0
    34       13           3
    34       20           1
    34       21           4
    34       22           2
    34       31           1
    34       32           0
    34       34           4
    34       38           3
    34       94           4
    35        2           2
    35        8           2
    35        9           0
    35       10           3
    35       12           1
    35       37           4
    35       65           2
    35       89           0
    35       90           2
    35       91           1
    36        2           1
    36        3           1
    36       13           2
    36       25           4
    36       26           3
    36       39           2
    36       54           0
    36       62           1
    36       72           2
    36       74           4
    37        2           4
    37       14           4
    37       19           0
    37       22           0
    37       40           2
    37       54           0
    37       68           3
    37       74           3
    37       88           0
    37       99           4
    38        2           4
    38       15           0
    38       21           1
    38       24           3
    38       34           1
    38       45           2
    38       48           0
    38       51           1
    38       80           4
    38      100           2
    39       14           1
    39       39           2
    39       56           1
    39       74           3
    39       75           3
    39       88           3
    39       94           4
    39       96           2
    39       97           2
    39       99           0
    40        2           4
    40       29           1
    40       58           2
    40       64           4
    40       66           3
    40       71           0
    40       72           0
    40       84           3
    40       92           4
    40       96           0
    41        1           3
    41        3           3
    41        5           3
    41       30           1
    41       46           4
    41       52           1
    41       70           3
    41       81           2
    41       82           1
    41       85           0
    42        6           2
    42       17           0
    42       33           1
    42       37           0
    42       48           3
    42       57           1
    42       60           3
    42       74           2
    42       82           1
    42      100           0
    43        6           1
    43       16           2
    43       20           0
    43       25           2
    43       67           3
    43       71           4
    43       75           3
    43       76           3
    43       91           1
    43       99           3
    44        6           3
    44       22           2
    44       45           3
    44       46           1
    44       48           3
    44       55           3
    44       72           0
    44       77           4
    44       83           4
    44       95           3
    45       15           3
    45       17           4
    45       26           2
    45       30           4
    45       40           3
    45       56           0
    45       80           2
    45       81           4
    45       91           4
    45       96           4
    46       35           4
    46       37           3
    46       43           1
    46       48           3
    46       50           4
    46       69           0
    46       74           4
    46       75           1
    46       96           3
    46       98           3
    47        5           0
    47       12           3
    47       14           0
    47       16           3
    47       44           0
    47       55           1
    47       59           0
    47       74           0
    47       83           0
    47       90           1
    48       26           4
    48       39           1
    48       46           1
    48       51           0
    48       55           1
    48       66           2
    48       71           1
    48       82           4
    48       85           1
    48       89           0
    49       16           2
    49       26           0
    49       38           2
    49       39           0
    49       41           4
    49       54           0
    49       61           4
    49       68           1
    49       80           0
    49       99           4
    50       20           4
    50       32           2
    50       46           1
    50       47           4
    50       58           0
    50       59           0
    50       68           1
    50       72           1
    50       82           1
    50       90           2
    51        1           4
    51        3           0
    51        6           4
    51       37           0
    51       50           1
    51       53           0
    51       64           0
    51       75           2
    51       76           3
    51       90           1
    52        2           4
    52        7           1
    52       12           0
    52       15           3
    52       41           2
    52       43           4
    52       57           0
    52       72           0
    52       74           0
    52       88           3
    53        3           2
    53       29           4
    53       50           0
    53       54           3
    53       57           3
    53       68           1
    53       73           2
    53       74           2
    53       81           1
    53       96           3
    54        4           4
    54       13           3
    54       16           1
    54       25           2
    54       57           3
    54       62           0
    54       63           2
    54       70           0
    54       86           3
    54       97           3
    55        4           3
    55       11           3
    55       19           3
    55       47           2
    55       59           2
    55       70           3
    55       73           1
    55       84           2
    55       95           3
    55       96           4
    56        6           4
    56        8           3
    56       24           1
    56       28           0
    56       39           3
    56       40           3
    56       46           1
    56       50           0
    56       55           4
    56       71           2
    57       11           0
    57       14           4
    57       17           4
    57       20           3
    57       22           4
    57       41           1
    57       54           4
    57       61           4
    57       83           3
    57       87           0
    58        5           2
    58       11           1
    58       25           0
    58       27           0
    58       51           3
    58       66           4
    58       80           0
    58       82           3
    58       85           3
    58       94           1
    59        1           1
    59        7           4
    59       10           2
    59       16           3
    59       33           3
    59       57           2
    59       71           4
    59       72           2
    59       86           2
    59       96           2
    60        2           0
    60        9           4
    60       28           1
    60       29           4
    60       38           3
    60       46           3
    60       60           0
    60       70           3
    60       78           3
    60       93           0
    61        5           2
    61        9           0
    61       15           1
    61       25           0
    61       47           2
    61       51           3
    61       60           4
    61       87           3
    61       91           2
    61       96           2
    62       12           2
    62       21           3
    62       22           0
    62       40           0
    62       41           2
    62       56           3
    62       70           0
    62       74           4
    62       75           0
    62       85           2
    63        6           0
    63       19           4
    63       24           2
    63       29           4
    63       35           0
    63       37           3
    63       55           0
    63       75           2
    63       88           1
    63       89           0
    64        2           2
    64        8           1
    64        9           1
    64       25           3
    64       35           3
    64       54           1
    64       65           1
    64       84           2
    64       85           3
    64       90           1
    65        6           4
    65       33           3
    65       34           0
    65       45           1
    65       53           3
    65       77           0
    65       79           0
    65       91           4
    65       92           2
    65      100           4
    66        7           1
    66       20           2
    66       26           2
    66       28           2
    66       32           0
    66       33           3
    66       40           1
    66       70           2
    66       82           1
    66       91           0
    67        5           2
    67       10           3
    67       26           4
    67       27           4
    67       48           4
    67       56           2
    67       57           3
    67       64           1
    67       77           0
    67       81           0
    68       17           1
    68       18           4
    68       19           4
    68       24           4
    68       35           0
    68       45           2
    68       79           3
    68       81           2
    68       90           0
    68       95           1
    69        1           4
    69        7           2
    69       33           4
    69       40           0
    69       70           0
    69       73           3
    69       89           3
    69       91           1
    69       92           1
    69      100           0
    70        7           0
    70        8           4
    70       28           4
    70       56           4
    70       67           0
    70       71           0
    70       75           2
    70       79           4
    70       83           1
    70       95           3
    71        2           1
    71       18           2
    71       37           4
    71       50           1
    71       62           2
    71       76           3
    71       77           1
    71       78           3
    71       83           4
    71       84           0
    72        8           1
    72       28           0
    72       32           4
    72       40           1
    72       56           3
    72       68           1
    72       72           4
    72       74           0
    72       87           2
    72       98           4
    73       10           2
    73       14           1
    73       29           0
    73       39           0
    73       45           4
    73       54           0
    73       58           1
    73       61           4
    73       70           3
    73       99           1
    74       12           1
    74       37           4
    74       63           1
    74       65           3
    74       69           1
    74       75           1
    74       83           4
    74       87           0
    74       96           4
    74       99           1
    75       17           4
    75       27           2
    75       38           1
    75       39           1
    75       43           1
    75       60           2
    75       63           0
    75       64           2
    75       76           0
    75       77           4
    76        8           0
    76       27           2
    76       28           3
    76       35           3
    76       53           4
    76       54           2
    76       60           2
    76       67           4
    76       69           2
    76       94           2
    77        9           2
    77       11           3
    77       19           1
    77       28           0
    77       49           4
    77       50           2
    77       52           0
    77       55           4
    77       56           1
    77       64           4
    78       16           2
    78       23           0
    78       25           3
    78       27           4
    78       36           2
    78       53           1
    78       60           1
    78       91           3
    78       94           0
    78       98           1
    79        7           4
    79       29           4
    79       41           3
    79       42           0
    79       52           2
    79       58           2
    79       63           0
    79       70           0
    79       78           2
    79       95           4
    80        5           4
    80        7           4
    80       19           4
    80       22           4
    80       33           2
    80       39           0
    80       54           3
    80       72           3
    80       79           2
    80       96           1
    81       11           3
    81       20           0
    81       22           2
    81       23           0
    81       25           4
    81       39           1
    81       74           4
    81       87           1
    81       90           2
    81       95           4
    82        1           1
    82        9           4
    82       11           0
    82       24           0
    82       25           2
    82       32           3
    82       37           0
    82       39           0
    82       87           2
    82       90           2
    83        4           0
    83        6           0
    83       23           2
    83       32           1
    83       37           4
    83       40           0
    83       54           4
    83       69           3
    83       70           1
    83       90           1
    84        1           0
    84        2           2
    84       13           4
    84       16           2
    84       25           1
    84       30           4
    84       34           3
    84       35           3
    84       44           1
    84       74           2
    85        1           2
    85       10           0
    85       12           2
    85       18           0
    85       37           4
    85       56           0
    85       66           2
    85       74           3
    85       83           2
    85       92           1
    86        5           3
    86       19           0
    86       24           4
    86       27           4
    86       50           4
    86       51           4
    86       70           1
    86       74           2
    86       86           4
    86       90           0
    87       14           1
    87       27           1
    87       33           4
    87       44           3
    87       47           0
    87       64           0
    87       69           0
    87       76           4
    87       88           0
    87       89           2
    88       26           0
    88       36           0
    88       46           4
    88       48           0
    88       61           4
    88       79           4
    88       86           3
    88       88           1
    88       90           4
    88       95           2
    89        3           3
    89       11           4
    89       30           1
    89       33           0
    89       75           4
    89       76           1
    89       82           2
    89       91           2
    89       99           1
    89      100           1
    90       19           3
    90       43           3
    90       50           0
    90       55           1
    90       62           0
    90       68           4
    90       71           1
    90       80           2
    90       81           1
    90       82           2
    91       14           0
    91       18           3
    91       20           0
    91       44           3
    91       48           1
    91       49           3
    91       52           4
    91       58           4
    91       61           2
    91       90           4
    92        7           2
    92        8           0
    92       10           3
    92       18           3
    92       49           1
    92       54           1
    92       68           4
    92       74           2
    92       92           0
    92      100           0
    93        2           0
    93       12           2
    93       22           0
    93       57           1
    93       58           1
    93       61           4
    93       71           1
    93       91           1
    93       94           0
    93       97           3
    94       17           1
    94       18           2
    94       33           0
    94       36           4
    94       41           2
    94       44           4
    94       57           1
    94       66           0
    94       72           1
    94       80           0
    95        5           1
    95       16           2
    95       28           0
    95       46           4
    95       47           3
    95       50           1
    95       64           0
    95       75           0
    95       95           4
    95      100           4
    96        3           0
    96       14           1
    96       32           2
    96       33           1
    96       38           3
    96       64           4
    96       68           2
    96       91           0
    96       98           1
    96       99           4
    97        4           2
    97        5           0
    97        7           2
    97       20           2
    97       21           0
    97       34           2
    97       44           1
    97       59           1
    97       69           2
    97       90           1
    98        2           0
    98       10           1
    98       19           4
    98       20           1
    98       38           3
    98       59           0
    98       64           4
    98       70           4
    98       89           1
    98       93           4
    99        4           2
    99       23           0
    99       26           4
    99       28           1
    99       30           4
    99       41           1
    99       45           1
    99       46           4
    99       50           1
    99       60           1
   100        8           4
   100       15           2
   100       32           0
   100       45           3
   100       54           4
   100       74           2
   100       76           4
   100       81           1
   100       84           2
   100       88           0
